# Problem from http://www.cs.cornell.edu/gomes/QUASIdemo.html
# (n = 10)
# Pattern #1. 
# There are _many_ solutions to this problem.
param n := 10;
param m: 1 2 3 4 5 6 7 8 9 10:=
  1    . . . 1 . . . . . . 
  2    . . 1 . . . . . . . 
  3    . 1 . . . 2 . . . . 
  4    1 . . . 2 . . . . . 
  5    . . . 2 1 . . . . . 
  6    . . 2 . . 1 . . . . 
  7    . . . . . . 1 . . . 
  8    . . . . . . . 1 . 2 
  9    . . . . . . . . 2 . 
 10    . . . . . . . 2 . . 
;
